NAME: ch150.heu.tour
TYPE: TOUR
COMMENT: Heuristic tour (Lin-Kernighan), length 6584.26
DIMENSION: 150
TOUR_SECTION
1
98
103
82
95
107
5
100
143
97
124
93
126
33
92
54
134
138
46
90
83
56
146
26
75
18
142
85
132
65
55
58
141
25
20
110
81
29
86
108
70
135
50
137
102
114
99
19
2
37
6
28
9
42
120
47
139
40
53
24
118
127
69
36
61
11
148
130
17
66
60
140
117
41
57
39
101
116
12
51
109
43
67
38
23
32
131
77
122
14
80
133
15
78
21
64
112
136
145
72
49
147
144
129
27
31
123
74
13
106
91
119
68
128
45
71
44
115
150
4
104
22
125
149
62
3
113
10
94
88
121
79
59
16
111
105
52
35
96
89
8
7
84
30
63
48
73
76
34
87
-1
EOF
